param set_len = 16;
param target_sum = 4247578848;
param values := [1] 392367117 [2] 818348440 [3] 419981769 [4] 1065928553 [5] 700766977 [6] 186007282 [7] 585075882 [8] 841840496 [9] 744292958 [10] 470761131 [11] 667552493 [12] 329043531 [13] 495349931 [14] 351570703 [15] 668946031 [16] 607820002 ;
